ID_groupA
11409
11409
11409
61782
61782
61782
25359
18606
18606
11409
18606
4979
61782
18606
11409
11409
61782
61782
4979
11409
11409
11409
11409
11409
4979
61782
11409
11409
11409
61782
4979
11409
11409
11409
11409
11409
4979
11409
11409
11409
61782
11409
11409
11409
18606
11409
11409
11409
11409
11409
61782
61782
25359
18606
18606
61782
18606
4979
61782
18606
61782
61782
61782
61782
61782
61782
4979
61782
61782
61782
11409
11409
4979
4979
4979
4979
11409
25359
18606
25359
18606
4979
61782
18606
18606
18606
18606
11409
61782
18606
18606
18606
11409
18606
18606
11409
4979
61782
11409
4979
11409
18606
4979
11409
11409
